Minimize
  - 39 y_0 - 22 y_1 - 34 y_2 - 47 y_3 - 40 y_4 - 34 y_5 - 21 y_6 - 17 y_7
   - 47 y_8 - 38 y_9 - 49 y_10 - 29 y_11 - 10 y_12 - 9 y_13 - 46 y_14
   - 21 y_15 - 38 y_16 - 36 y_17 - 57 y_18 - 30 y_19 - 44 y_20 - 24 y_21
   - 44 y_22 - 35 y_23 - 28 y_24 - 29 y_25 - 41 y_26 - 30 y_27 - 16 y_28
   - 48 y_29 - 45 y_30 - 19 y_31 - y_32 - 27 y_33 - 29 y_34 - 8 y_35
   - 56 y_36 - 19 y_37 - 37 y_38 - 31 y_39 - 14 y_40 - 35 y_41 - 34 y_42
   - 22 y_43 - 55 y_44 - 39 y_45 - 41 y_46 - 27 y_47 - 11 y_48
   + 1553 Constant
Subject To
 c_0: y_41 = 1
 c_1_0: y_0 >= 1
 c_1_1: y_1 + y_6 >= 1
 c_1_2: y_2 + y_19 + y_23 >= 1
 c_1_3: y_3 + y_20 >= 1
 c_1_4: y_4 + y_9 + y_17 + y_38 + y_46 >= 1
 c_1_5: y_5 + y_9 + y_17 + y_38 >= 1
 c_1_6: y_1 + y_6 + y_21 + y_37 + y_43 >= 1
 c_1_7: y_7 + y_28 + y_31 + y_40 >= 1
 c_1_8: y_8 + y_20 + y_22 >= 1
 c_1_9: y_4 + y_5 + y_9 + y_17 + y_38 + y_46 >= 1
 c_1_10: y_10 + y_30 >= 1
 c_1_11: y_11 + y_27 + y_33 + y_34 + y_39 >= 1
 c_1_12: y_12 + y_48 >= 1
 c_1_13: y_13 + y_35 >= 1
 c_1_14: y_14 + y_29 >= 1
 c_1_15: y_15 >= 1
 c_1_16: y_16 + y_23 + y_26 >= 1
 c_1_17: y_4 + y_5 + y_9 + y_17 + y_38 + y_46 >= 1
 c_1_18: y_18 + y_36 >= 1
 c_1_19: y_2 + y_19 + y_25 >= 1
 c_1_20: y_3 + y_8 + y_20 + y_22 + y_26 >= 1
 c_1_21: y_6 + y_21 + y_25 + y_37 + y_43 >= 1
 c_1_22: y_8 + y_20 + y_22 >= 1
 c_1_23: y_2 + y_16 + y_23 >= 1
 c_1_24: y_24 + y_27 + y_33 + y_34 >= 1
 c_1_25: y_19 + y_21 + y_25 >= 1
 c_1_26: y_16 + y_20 + y_26 >= 1
 c_1_27: y_11 + y_24 + y_27 + y_33 + y_34 + y_39 >= 1
 c_1_28: y_7 + y_28 + y_31 + y_40 >= 1
 c_1_29: y_14 + y_29 >= 1
 c_1_30: y_10 + y_30 >= 1
 c_1_31: y_7 + y_28 + y_31 + y_40 >= 1
 c_1_32: y_32 + y_49 >= 1
 c_1_33: y_11 + y_24 + y_27 + y_33 + y_34 + y_39 >= 1
 c_1_34: y_11 + y_24 + y_27 + y_33 + y_34 + y_39 >= 1
 c_1_35: y_13 + y_35 >= 1
 c_1_36: y_18 + y_36 >= 1
 c_1_37: y_6 + y_21 + y_37 + y_43 >= 1
 c_1_38: y_4 + y_5 + y_9 + y_17 + y_38 + y_46 >= 1
 c_1_39: y_11 + y_27 + y_33 + y_34 + y_39 + y_41 >= 1
 c_1_40: y_7 + y_28 + y_31 + y_40 >= 1
 c_1_41: y_39 + y_41 + y_45 >= 1
 c_1_42: y_42 >= 1
 c_1_43: y_6 + y_21 + y_37 + y_43 >= 1
 c_1_44: y_44 >= 1
 c_1_45: y_41 + y_45 >= 1
 c_1_46: y_4 + y_9 + y_17 + y_38 + y_46 >= 1
 c_1_47: y_47 >= 1
 c_1_48: y_12 + y_48 >= 1
 c_1_49: y_32 + y_49 >= 1
Bounds
 Constant = 1
Binaries
 y_0 y_1 y_2 y_3 y_4 y_5 y_6 y_7 y_8 y_9 y_10 y_11 y_12 y_13 y_14 y_15 y_16
 y_17 y_18 y_19 y_20 y_21 y_22 y_23 y_24 y_25 y_26 y_27 y_28 y_29 y_30 y_31
 y_32 y_33 y_34 y_35 y_36 y_37 y_38 y_39 y_40 y_41 y_42 y_43 y_44 y_45 y_46
 y_47 y_48 y_49
End
